32      4       
13      21      18      20      
0       0       0       0       0       3       2       3       4       
10      8       0       0       2       3       5       12      22      
9       10      0       0       1       3       7       9       18      
10      0       7       3       0       3       8       11      16      
4       0       9       10      0       3       6       14      15      
5       0       10      8       3       2       13      31      
3       0       3       0       0       1       24      
4       0       6       0       0       2       20      21      
4       1       0       7       0       1       10      
8       0       0       9       5       1       28      
4       0       5       0       6       2       17      19      
3       8       5       0       1       3       14      23      30      
2       1       0       0       9       1       26      
2       0       3       0       9       1       27      
1       8       0       9       0       1       20      
8       0       10      0       9       1       30      
2       0       6       0       0       2       20      30      
1       0       4       0       10      1       21      
2       0       0       2       0       1       24      
8       8       7       4       0       1       23      
2       0       0       0       10      1       24      
2       9       0       1       0       1       28      
2       2       8       5       0       2       25      27      
5       1       0       2       0       1       26      
10      3       0       0       0       1       29      
4       0       7       6       0       1       29      
6       4       6       7       0       1       28      
3       5       6       0       0       1       31      
9       0       7       6       0       1       32      
9       0       0       6       8       1       32      
6       10      8       6       5       1       32      
0       0       0       0       0       0       